<number of tasks>
70

<cycle time>
176

<task times>
1 17
2 66
3 54
4 52
5 6
6 88
7 21
8 128
9 68
10 70
11 85
12 21
13 134
14 135
15 94
16 90
17 50
18 143
19 19
20 54
21 50
22 40
23 73
24 12
25 152
26 42
27 45
28 74
29 26
30 11
31 31
32 50
33 102
34 46
35 35
36 40
37 2
38 1
39 3
40 13
41 16
42 25
43 21
44 43
45 30
46 83
47 89
48 56
49 59
50 43
51 11
52 26
53 44
54 121
55 38
56 68
57 22
58 7
59 16
60 32
61 25
62 27
63 156
64 28
65 15
66 26
67 18
68 72
69 23
70 27

<precedence relations>
1,2
1,41
1,69
1,70
2,3
3,4
3,68
4,6
4,7
5,6
5,24
5,30
6,8
7,8
8,12
9,10
10,11
11,12
12,13
12,14
13,23
14,23
15,16
16,17
16,18
17,19
18,19
19,20
19,22
19,57
20,21
21,23
22,23
23,25
23,31
23,33
24,25
25,26
25,27
25,28
25,29
26,35
27,35
28,35
29,35
30,31
31,32
32,35
33,34
34,35
35,36
35,44
35,48
35,51
35,53
35,56
35,60
35,61
35,62
36,37
37,38
38,39
39,40
40,42
41,42
42,43
43,50
44,45
45,46
46,47
47,50
48,49
49,50
51,52
52,54
53,54
54,55
57,58
58,59
59,60
61,65
62,63
63,64
64,65
64,66
64,67

<setup times forward>
1,9:2
1,10:1
1,11:3
1,15:4
1,16:1
1,17:3
1,18:1
1,19:1
1,20:2
1,21:2
1,22:5
1,41:2
1,57:2
1,58:2
1,59:1
1,69:3
1,70:1
2,9:2
2,10:1
2,11:3
2,15:4
2,16:1
2,17:3
2,18:1
2,19:1
2,20:2
2,21:2
2,22:5
2,41:2
2,57:2
2,58:2
2,59:1
2,69:3
2,70:1
3,4:4
3,9:2
3,10:1
3,11:3
3,15:4
3,16:1
3,17:3
3,18:1
3,19:1
3,20:2
3,21:2
3,22:5
3,41:2
3,57:2
3,58:2
3,59:1
3,68:2
3,69:3
3,70:1
4,5:4
4,6:6
4,9:6
4,10:3
4,11:7
4,16:3
4,17:7
4,18:5
4,19:5
4,20:6
4,21:6
4,22:9
4,24:4
4,30:4
4,41:6
4,57:2
4,58:2
4,59:5
4,68:6
4,69:1
4,70:3
5,4:4
5,6:2
5,7:4
5,9:2
5,10:1
5,11:3
5,15:4
5,16:1
5,17:3
5,18:1
5,19:1
5,20:2
5,21:2
5,22:5
5,41:2
5,57:2
5,58:2
5,59:1
5,68:2
5,69:3
5,70:1
6,7:6
6,8:3
6,10:3
6,11:1
6,15:6
6,16:3
6,17:1
6,18:1
6,19:1
6,22:3
6,24:2
6,30:2
6,57:4
6,58:4
6,59:1
6,69:5
6,70:3
7,5:4
7,6:6
7,8:3
7,9:6
7,10:3
7,11:7
7,16:3
7,17:7
7,18:5
7,19:5
7,20:6
7,21:6
7,22:9
7,24:4
7,30:4
7,41:6
7,57:2
7,58:2
7,59:5
7,68:6
7,69:1
7,70:3
8,9:3
8,11:4
8,12:4
8,15:3
8,17:4
8,18:2
8,19:2
8,20:3
8,21:3
8,22:6
8,24:1
8,30:1
8,41:3
8,57:1
8,58:1
8,59:2
8,68:3
8,69:2
9,1:2
9,2:2
9,3:2
9,4:6
9,5:2
9,7:6
9,8:3
9,10:3
9,15:6
9,16:3
9,17:1
9,18:1
9,19:1
9,22:3
9,24:2
9,30:2
9,57:4
9,58:4
9,59:1
9,69:5
9,70:3
10,1:1
10,2:1
10,3:1
10,4:3
10,5:1
10,6:3
10,7:3
10,11:4
10,15:3
10,17:4
10,18:2
10,19:2
10,20:3
10,21:3
10,22:6
10,24:1
10,30:1
10,41:3
10,57:1
10,58:1
10,59:2
10,68:3
10,69:2
11,1:3
11,2:3
11,3:3
11,4:7
11,5:3
11,6:1
11,7:7
11,8:4
11,15:7
11,16:4
11,18:2
11,19:2
11,20:1
11,21:1
11,22:2
11,24:3
11,30:3
11,41:1
11,57:5
11,58:5
11,59:2
11,68:1
11,69:6
11,70:4
12,13:5
12,14:2
12,15:7
12,16:4
12,18:2
12,19:2
12,20:1
12,21:1
12,22:2
12,24:3
12,30:3
12,41:1
12,57:5
12,58:5
12,59:2
12,68:1
12,69:6
12,70:4
13,14:7
13,15:2
13,16:1
13,17:5
13,18:3
13,19:3
13,20:4
13,21:4
13,22:7
13,23:8
13,24:2
13,30:2
13,41:4
13,59:3
13,68:4
13,69:1
13,70:1
14,13:7
14,15:9
14,16:6
14,17:2
14,18:4
14,19:4
14,20:3
14,21:3
14,23:1
14,24:5
14,30:5
14,41:3
14,57:7
14,58:7
14,59:4
14,68:3
14,69:8
14,70:6
15,1:4
15,2:4
15,3:4
15,5:4
15,6:6
15,8:3
15,9:6
15,10:3
15,11:7
15,12:7
15,13:2
15,14:9
15,16:3
15,24:4
15,30:4
15,41:6
15,68:6
15,69:1
15,70:3
16,1:1
16,2:1
16,3:1
16,4:3
16,5:1
16,6:3
16,7:3
16,9:3
16,11:4
16,12:4
16,13:1
16,14:6
16,17:4
16,18:2
16,24:1
16,30:1
16,41:3
16,68:3
16,69:2
17,1:3
17,2:3
17,3:3
17,4:7
17,5:3
17,6:1
17,7:7
17,8:4
17,9:1
17,10:4
17,13:5
17,14:2
17,18:2
17,19:2
17,24:3
17,30:3
17,41:1
17,68:1
17,69:6
17,70:4
18,1:1
18,2:1
18,3:1
18,4:5
18,5:1
18,6:1
18,7:5
18,8:2
18,9:1
18,10:2
18,11:2
18,12:2
18,13:3
18,14:4
18,17:2
18,24:1
18,30:1
18,41:1
18,68:1
18,69:4
18,70:2
19,1:1
19,2:1
19,3:1
19,4:5
19,5:1
19,6:1
19,7:5
19,8:2
19,9:1
19,10:2
19,11:2
19,12:2
19,13:3
19,14:4
19,20:1
19,22:4
19,24:1
19,30:1
19,41:1
19,57:3
19,68:1
19,69:4
19,70:2
20,1:2
20,2:2
20,3:2
20,4:6
20,5:2
20,7:6
20,8:3
20,10:3
20,11:1
20,12:1
20,13:4
20,14:3
20,22:3
20,24:2
20,30:2
20,57:4
20,58:4
20,59:1
20,69:5
20,70:3
21,1:2
21,2:2
21,3:2
21,4:6
21,5:2
21,7:6
21,8:3
21,10:3
21,11:1
21,12:1
21,13:4
21,14:3
21,22:3
21,23:4
21,24:2
21,30:2
21,57:4
21,58:4
21,59:1
21,69:5
21,70:3
22,1:5
22,2:5
22,3:5
22,4:9
22,5:5
22,6:3
22,7:9
22,8:6
22,9:3
22,10:6
22,11:2
22,12:2
22,13:7
22,20:3
22,21:3
22,23:1
22,24:5
22,30:5
22,41:3
22,57:7
22,58:7
22,59:4
22,68:3
22,69:8
22,70:6
23,24:6
23,25:5
23,30:6
23,31:7
23,41:4
23,57:8
23,58:8
23,59:5
23,68:4
23,69:9
23,70:7
24,4:4
24,6:2
24,7:4
24,8:1
24,9:2
24,10:1
24,11:3
24,12:3
24,13:2
24,14:5
24,15:4
24,16:1
24,17:3
24,18:1
24,19:1
24,20:2
24,21:2
24,22:5
24,23:6
24,25:1
24,31:1
24,32:1
24,33:6
24,34:3
24,41:2
24,57:2
24,58:2
24,59:1
24,68:2
24,69:3
24,70:1
25,26:4
25,27:4
25,28:2
25,29:4
25,30:1
25,31:2
25,32:2
25,33:5
25,34:4
25,41:1
25,57:3
25,58:3
25,68:1
25,69:4
25,70:2
26,28:2
26,30:3
26,31:2
26,32:2
26,33:9
26,35:10
26,41:5
26,57:1
26,58:1
26,59:4
26,68:5
26,70:2
27,28:2
27,30:3
27,31:2
27,32:2
27,33:9
27,35:10
27,41:5
27,57:1
27,58:1
27,59:4
27,68:5
27,70:2
28,26:2
28,27:2
28,29:2
28,30:1
28,33:7
28,34:2
28,35:8
28,41:3
28,57:1
28,58:1
28,59:2
28,68:3
28,69:2
29,28:2
29,30:3
29,31:2
29,32:2
29,33:9
29,35:10
29,41:5
29,57:1
29,58:1
29,59:4
29,68:5
29,70:2
30,4:4
30,6:2
30,7:4
30,8:1
30,9:2
30,10:1
30,11:3
30,12:3
30,13:2
30,14:5
30,15:4
30,16:1
30,17:3
30,18:1
30,19:1
30,20:2
30,21:2
30,22:5
30,23:6
30,25:1
30,26:3
30,27:3
30,28:1
30,29:3
30,31:1
30,33:6
30,34:3
30,41:2
30,57:2
30,58:2
30,59:1
30,68:2
30,69:3
30,70:1
31,24:1
31,25:2
31,26:2
31,27:2
31,29:2
31,33:7
31,34:2
31,41:3
31,57:1
31,58:1
31,59:2
31,68:3
31,69:2
32,24:1
32,25:2
32,26:2
32,27:2
32,29:2
32,33:7
32,34:2
32,35:8
32,41:3
32,57:1
32,58:1
32,59:2
32,68:3
32,69:2
33,24:6
33,25:5
33,26:9
33,27:9
33,28:7
33,29:9
33,30:6
33,31:7
33,32:7
33,34:9
33,41:4
33,57:8
33,58:8
33,59:5
33,68:4
33,69:9
33,70:7
34,24:3
34,25:4
34,28:2
34,30:3
34,31:2
34,32:2
34,35:10
34,41:5
34,57:1
34,58:1
34,59:4
34,68:5
34,70:2
35,36:11
35,41:5
35,48:10
35,53:11
35,56:8
35,57:9
35,58:9
35,59:6
35,60:10
35,61:10
35,68:5
35,69:10
35,70:8
36,41:6
36,44:11
36,45:11
36,47:3
36,48:1
36,49:1
36,51:11
36,52:11
36,54:6
36,55:1
36,56:3
36,57:2
36,58:2
36,59:5
36,60:1
36,61:1
36,62:11
36,63:10
36,64:6
36,65:1
36,66:6
36,67:3
36,68:6
36,69:1
36,70:3
37,41:6
37,44:11
37,45:11
37,47:3
37,48:1
37,49:1
37,51:11
37,52:11
37,54:6
37,55:1
37,56:3
37,57:2
37,58:2
37,59:5
37,60:1
37,61:1
37,62:11
37,63:10
37,64:6
37,65:1
37,66:6
37,67:3
37,68:6
37,69:1
37,70:3
38,41:6
38,44:11
38,45:11
38,47:3
38,48:1
38,49:1
38,51:11
38,52:11
38,54:6
38,55:1
38,56:3
38,57:2
38,58:2
38,59:5
38,60:1
38,61:1
38,62:11
38,63:10
38,64:6
38,65:1
38,66:6
38,67:3
38,68:6
38,69:1
38,70:3
39,40:1
39,41:6
39,44:11
39,45:11
39,47:3
39,48:1
39,49:1
39,51:11
39,52:11
39,54:6
39,55:1
39,56:3
39,57:2
39,58:2
39,59:5
39,60:1
39,61:1
39,62:11
39,63:10
39,64:6
39,65:1
39,66:6
39,67:3
39,68:6
39,69:1
39,70:3
40,41:5
40,44:10
40,45:10
40,46:1
40,47:2
40,51:10
40,52:10
40,53:1
40,54:5
40,56:2
40,57:1
40,58:1
40,59:4
40,62:10
40,63:9
40,64:5
40,66:5
40,67:2
40,68:5
40,70:2
41,2:2
41,3:2
41,4:6
41,5:2
41,7:6
41,8:3
41,10:3
41,11:1
41,12:1
41,13:4
41,14:3
41,15:6
41,16:3
41,17:1
41,18:1
41,19:1
41,22:3
41,23:4
41,24:2
41,25:1
41,26:5
41,27:5
41,28:3
41,29:5
41,30:2
41,31:3
41,32:3
41,33:4
41,34:5
41,35:5
41,36:6
41,37:6
41,38:6
41,39:6
41,40:5
41,42:5
41,44:5
41,45:5
41,46:6
41,47:3
41,48:5
41,49:5
41,51:5
41,52:5
41,53:6
41,55:5
41,56:3
41,57:4
41,58:4
41,59:1
41,60:5
41,61:5
41,62:5
41,63:4
41,65:5
41,67:3
41,69:5
41,70:3
42,44:10
42,45:10
42,46:1
42,47:2
42,51:10
42,52:10
42,53:1
42,54:5
42,56:2
42,57:1
42,58:1
42,59:4
42,62:10
42,63:9
42,64:5
42,66:5
42,67:2
42,68:5
42,70:2
43,44:10
43,45:10
43,46:1
43,47:2
43,51:10
43,52:10
43,53:1
43,54:5
43,56:2
43,57:1
43,58:1
43,59:4
43,62:10
43,63:9
43,64:5
43,66:5
43,67:2
43,68:5
43,70:2
44,36:11
44,37:11
44,38:11
44,39:11
44,40:10
44,41:5
44,42:10
44,43:10
44,48:10
44,49:10
44,53:11
44,54:5
44,55:10
44,56:8
44,57:9
44,58:9
44,59:6
44,60:10
44,61:10
44,63:1
44,64:5
44,65:10
44,66:5
44,67:8
44,68:5
44,69:10
44,70:8
45,36:11
45,37:11
45,38:11
45,39:11
45,40:10
45,41:5
45,42:10
45,43:10
45,46:11
45,48:10
45,49:10
45,53:11
45,54:5
45,55:10
45,56:8
45,57:9
45,58:9
45,59:6
45,60:10
45,61:10
45,63:1
45,64:5
45,65:10
45,66:5
45,67:8
45,68:5
45,69:10
45,70:8
46,40:1
46,41:6
46,42:1
46,43:1
46,47:3
46,48:1
46,49:1
46,51:11
46,52:11
46,54:6
46,55:1
46,56:3
46,57:2
46,58:2
46,59:5
46,60:1
46,61:1
46,62:11
46,63:10
46,64:6
46,65:1
46,66:6
46,67:3
46,68:6
46,69:1
46,70:3
47,36:3
47,37:3
47,38:3
47,39:3
47,40:2
47,41:3
47,42:2
47,43:2
47,48:2
47,49:2
47,50:2
47,51:8
47,52:8
47,53:3
47,54:3
47,55:2
47,57:1
47,58:1
47,59:2
47,60:2
47,61:2
47,62:8
47,63:7
47,64:3
47,65:2
47,66:3
47,68:3
47,69:2
48,36:1
48,37:1
48,38:1
48,39:1
48,41:5
48,44:10
48,45:10
48,46:1
48,47:2
48,51:10
48,52:10
48,53:1
48,54:5
48,56:2
48,57:1
48,58:1
48,59:4
48,62:10
48,63:9
48,64:5
48,66:5
48,67:2
48,68:5
48,70:2
49,36:1
49,37:1
49,38:1
49,39:1
49,41:5
49,44:10
49,45:10
49,46:1
49,47:2
49,51:10
49,52:10
49,53:1
49,54:5
49,56:2
49,57:1
49,58:1
49,59:4
49,62:10
49,63:9
49,64:5
49,66:5
49,67:2
49,68:5
49,70:2
50,51:10
50,52:10
50,53:1
50,54:5
50,56:2
50,57:1
50,58:1
50,59:4
50,62:10
50,63:9
50,64:5
50,66:5
50,67:2
50,68:5
50,70:2
51,36:11
51,37:11
51,38:11
51,39:11
51,40:10
51,41:5
51,42:10
51,43:10
51,46:11
51,47:8
51,48:10
51,49:10
51,50:10
51,53:11
51,56:8
51,57:9
51,58:9
51,59:6
51,60:10
51,61:10
51,63:1
51,64:5
51,65:10
51,66:5
51,67:8
51,68:5
51,69:10
51,70:8
52,36:11
52,37:11
52,38:11
52,39:11
52,40:10
52,41:5
52,42:10
52,43:10
52,46:11
52,47:8
52,48:10
52,49:10
52,50:10
52,53:11
52,54:5
52,56:8
52,57:9
52,58:9
52,59:6
52,60:10
52,61:10
52,63:1
52,64:5
52,65:10
52,66:5
52,67:8
52,68:5
52,69:10
52,70:8
53,40:1
53,41:6
53,42:1
53,43:1
53,44:11
53,45:11
53,47:3
53,48:1
53,49:1
53,50:1
53,51:11
53,52:11
53,54:6
53,56:3
53,57:2
53,58:2
53,59:5
53,60:1
53,61:1
53,62:11
53,63:10
53,64:6
53,65:1
53,66:6
53,67:3
53,68:6
53,69:1
53,70:3
54,36:6
54,37:6
54,38:6
54,39:6
54,40:5
54,42:5
54,43:5
54,44:5
54,45:5
54,46:6
54,47:3
54,48:5
54,49:5
54,50:5
54,55:5
54,56:3
54,57:4
54,58:4
54,59:1
54,60:5
54,61:5
54,62:5
54,63:4
54,65:5
54,67:3
54,69:5
54,70:3
55,36:1
55,37:1
55,38:1
55,39:1
55,41:5
55,44:10
55,45:10
55,46:1
55,47:2
55,56:2
55,57:1
55,58:1
55,59:4
55,62:10
55,63:9
55,64:5
55,66:5
55,67:2
55,68:5
55,70:2
56,36:3
56,37:3
56,38:3
56,39:3
56,40:2
56,41:3
56,42:2
56,43:2
56,44:8
56,45:8
56,46:3
56,48:2
56,49:2
56,50:2
56,51:8
56,52:8
56,53:3
56,54:3
56,55:2
56,57:1
56,58:1
56,59:2
56,60:2
56,61:2
56,62:8
56,63:7
56,64:3
56,65:2
56,66:3
56,68:3
56,69:2
57,1:2
57,2:2
57,3:2
57,4:2
57,5:2
57,6:4
57,7:2
57,8:1
57,9:4
57,10:1
57,11:5
57,12:5
57,14:7
57,20:4
57,21:4
57,22:7
57,23:8
57,24:2
57,25:3
57,26:1
57,27:1
57,28:1
57,29:1
57,30:2
57,31:1
57,32:1
57,33:8
57,34:1
57,35:9
57,36:2
57,37:2
57,38:2
57,39:2
57,40:1
57,41:4
57,42:1
57,43:1
57,44:9
57,45:9
57,46:2
57,47:1
57,48:1
57,49:1
57,50:1
57,51:9
57,52:9
57,53:2
57,54:4
57,55:1
57,56:1
57,61:1
57,62:9
57,63:8
57,64:4
57,65:1
57,66:4
57,67:1
57,68:4
57,69:1
57,70:1
58,1:2
58,2:2
58,3:2
58,4:2
58,5:2
58,6:4
58,7:2
58,8:1
58,9:4
58,10:1
58,11:5
58,12:5
58,14:7
58,20:4
58,21:4
58,22:7
58,23:8
58,24:2
58,25:3
58,26:1
58,27:1
58,28:1
58,29:1
58,30:2
58,31:1
58,32:1
58,33:8
58,34:1
58,35:9
58,36:2
58,37:2
58,38:2
58,39:2
58,40:1
58,41:4
58,42:1
58,43:1
58,44:9
58,45:9
58,46:2
58,47:1
58,48:1
58,49:1
58,50:1
58,51:9
58,52:9
58,53:2
58,54:4
58,55:1
58,56:1
58,59:3
58,61:1
58,62:9
58,63:8
58,64:4
58,65:1
58,66:4
58,67:1
58,68:4
58,69:1
58,70:1
59,1:1
59,2:1
59,3:1
59,4:5
59,5:1
59,6:1
59,7:5
59,8:2
59,9:1
59,10:2
59,11:2
59,12:2
59,13:3
59,14:4
59,20:1
59,21:1
59,22:4
59,23:5
59,24:1
59,26:4
59,27:4
59,28:2
59,29:4
59,30:1
59,31:2
59,32:2
59,33:5
59,34:4
59,35:6
59,36:5
59,37:5
59,38:5
59,39:5
59,40:4
59,41:1
59,42:4
59,43:4
59,44:6
59,45:6
59,46:5
59,47:2
59,48:4
59,49:4
59,50:4
59,51:6
59,52:6
59,53:5
59,54:1
59,55:4
59,56:2
59,60:4
59,61:4
59,62:6
59,63:5
59,64:1
59,65:4
59,66:1
59,67:2
59,68:1
59,69:4
59,70:2
60,36:1
60,37:1
60,38:1
60,39:1
60,41:5
60,44:10
60,45:10
60,46:1
60,47:2
60,51:10
60,52:10
60,53:1
60,54:5
60,56:2
60,62:10
60,63:9
60,64:5
60,66:5
60,67:2
60,68:5
60,70:2
61,36:1
61,37:1
61,38:1
61,39:1
61,41:5
61,44:10
61,45:10
61,46:1
61,47:2
61,51:10
61,52:10
61,53:1
61,54:5
61,56:2
61,57:1
61,58:1
61,59:4
61,62:10
61,63:9
61,64:5
61,66:5
61,67:2
61,68:5
61,70:2
62,36:11
62,37:11
62,38:11
62,39:11
62,40:10
62,41:5
62,42:10
62,43:10
62,46:11
62,47:8
62,48:10
62,49:10
62,50:10
62,53:11
62,54:5
62,55:10
62,56:8
62,57:9
62,58:9
62,59:6
62,60:10
62,61:10
62,63:1
62,68:5
62,69:10
62,70:8
63,36:10
63,37:10
63,38:10
63,39:10
63,40:9
63,41:4
63,42:9
63,43:9
63,44:1
63,45:1
63,46:10
63,47:7
63,48:9
63,49:9
63,50:9
63,51:1
63,52:1
63,53:10
63,54:4
63,55:9
63,56:7
63,57:8
63,58:8
63,59:5
63,60:9
63,61:9
63,64:4
63,68:4
63,69:9
63,70:7
64,36:6
64,37:6
64,38:6
64,39:6
64,40:5
64,42:5
64,43:5
64,44:5
64,45:5
64,46:6
64,47:3
64,48:5
64,49:5
64,50:5
64,51:5
64,52:5
64,53:6
64,55:5
64,56:3
64,57:4
64,58:4
64,59:1
64,60:5
64,61:5
64,65:5
64,67:3
64,69:5
64,70:3
65,36:1
65,37:1
65,38:1
65,39:1
65,41:5
65,44:10
65,45:10
65,46:1
65,47:2
65,51:10
65,52:10
65,53:1
65,54:5
65,56:2
65,57:1
65,58:1
65,59:4
65,66:5
65,67:2
65,68:5
65,70:2
66,36:6
66,37:6
66,38:6
66,39:6
66,40:5
66,42:5
66,43:5
66,44:5
66,45:5
66,46:6
66,47:3
66,48:5
66,49:5
66,50:5
66,51:5
66,52:5
66,53:6
66,55:5
66,56:3
66,57:4
66,58:4
66,59:1
66,60:5
66,61:5
66,65:5
66,67:3
66,69:5
66,70:3
67,36:3
67,37:3
67,38:3
67,39:3
67,40:2
67,41:3
67,42:2
67,43:2
67,44:8
67,45:8
67,46:3
67,48:2
67,49:2
67,50:2
67,51:8
67,52:8
67,53:3
67,54:3
67,55:2
67,57:1
67,58:1
67,59:2
67,60:2
67,61:2
67,65:2
67,66:3
67,68:3
67,69:2
68,4:6
68,5:2
68,7:6
68,8:3
68,10:3
68,11:1
68,12:1
68,13:4
68,14:3
68,15:6
68,16:3
68,17:1
68,18:1
68,19:1
68,22:3
68,23:4
68,24:2
68,25:1
68,26:5
68,27:5
68,28:3
68,29:5
68,30:2
68,31:3
68,32:3
68,33:4
68,34:5
68,35:5
68,36:6
68,37:6
68,38:6
68,39:6
68,40:5
68,42:5
68,43:5
68,44:5
68,45:5
68,46:6
68,47:3
68,48:5
68,49:5
68,50:5
68,51:5
68,52:5
68,53:6
68,55:5
68,56:3
68,57:4
68,58:4
68,59:1
68,60:5
68,61:5
68,62:5
68,63:4
68,65:5
68,67:3
68,69:5
68,70:3
69,2:3
69,3:3
69,4:1
69,5:3
69,6:5
69,7:1
69,8:2
69,9:5
69,10:2
69,11:6
69,12:6
69,13:1
69,14:8
69,15:1
69,16:2
69,17:6
69,18:4
69,19:4
69,20:5
69,21:5
69,22:8
69,23:9
69,24:3
69,25:4
69,28:2
69,30:3
69,31:2
69,32:2
69,33:9
69,35:10
69,36:1
69,37:1
69,38:1
69,39:1
69,41:5
69,44:10
69,45:10
69,46:1
69,47:2
69,51:10
69,52:10
69,53:1
69,54:5
69,56:2
69,57:1
69,58:1
69,59:4
69,62:10
69,63:9
69,64:5
69,66:5
69,67:2
69,68:5
69,70:2
70,2:1
70,3:1
70,4:3
70,5:1
70,6:3
70,7:3
70,9:3
70,11:4
70,12:4
70,13:1
70,14:6
70,15:3
70,17:4
70,18:2
70,19:2
70,20:3
70,21:3
70,22:6
70,23:7
70,24:1
70,25:2
70,26:2
70,27:2
70,29:2
70,30:1
70,33:7
70,34:2
70,35:8
70,36:3
70,37:3
70,38:3
70,39:3
70,40:2
70,41:3
70,42:2
70,43:2
70,44:8
70,45:8
70,46:3
70,48:2
70,49:2
70,50:2
70,51:8
70,52:8
70,53:3
70,54:3
70,55:2
70,57:1
70,58:1
70,59:2
70,60:2
70,61:2
70,62:8
70,63:7
70,64:3
70,65:2
70,66:3
70,68:3
70,69:2

<setup times backward>
1,9:2
1,11:3
1,17:3
1,18:1
1,19:1
1,20:2
1,21:2
1,22:5
1,59:1
2,9:2
2,11:3
2,17:3
2,18:1
2,19:1
2,20:2
2,21:2
2,22:5
2,41:2
2,59:1
3,9:2
3,11:3
3,17:3
3,18:1
3,19:1
3,20:2
3,21:2
3,22:5
3,41:2
3,59:1
4,1:4
4,2:4
4,3:4
4,5:4
4,9:6
4,10:3
4,11:7
4,16:3
4,17:7
4,18:5
4,19:5
4,20:6
4,21:6
4,22:9
4,24:4
4,30:4
4,41:6
4,57:2
4,58:2
4,59:5
4,68:6
4,69:1
4,70:3
5,9:2
5,11:3
5,17:3
5,18:1
5,19:1
5,20:2
5,21:2
5,22:5
5,41:2
5,59:1
5,68:2
6,11:1
6,17:1
6,22:3
7,1:4
7,2:4
7,3:4
7,5:4
7,6:6
7,9:6
7,10:3
7,11:7
7,16:3
7,17:7
7,18:5
7,19:5
7,20:6
7,21:6
7,22:9
7,24:4
7,30:4
7,41:6
7,57:2
7,58:2
7,59:5
7,68:6
7,69:1
7,70:3
8,1:1
8,2:1
8,3:1
8,5:1
8,6:3
8,9:3
8,11:4
8,17:4
8,18:2
8,19:2
8,20:3
8,21:3
8,22:6
8,24:1
8,30:1
8,41:3
8,59:2
8,68:3
9,17:1
9,22:3
10,1:1
10,2:1
10,3:1
10,5:1
10,6:3
10,9:3
10,17:4
10,18:2
10,19:2
10,20:3
10,21:3
10,22:6
10,24:1
10,30:1
10,41:3
10,59:2
10,68:3
11,22:2
12,22:2
13,1:2
13,2:2
13,3:2
13,5:2
13,6:4
13,8:1
13,9:4
13,10:1
13,11:5
13,12:5
13,14:7
13,16:1
13,17:5
13,18:3
13,19:3
13,20:4
13,21:4
13,22:7
13,24:2
13,30:2
13,41:4
13,59:3
13,68:4
13,70:1
15,1:4
15,2:4
15,3:4
15,5:4
15,6:6
15,8:3
15,9:6
15,10:3
15,11:7
15,12:7
15,13:2
15,14:9
15,24:4
15,30:4
15,41:6
15,68:6
15,69:1
15,70:3
16,1:1
16,2:1
16,3:1
16,5:1
16,6:3
16,9:3
16,11:4
16,12:4
16,14:6
16,24:1
16,30:1
16,41:3
16,68:3
17,14:2
18,6:1
18,9:1
18,11:2
18,12:2
18,14:4
18,17:2
18,41:1
18,68:1
19,6:1
19,9:1
19,11:2
19,12:2
19,14:4
19,17:2
19,41:1
19,68:1
20,11:1
20,12:1
20,14:3
20,17:1
20,22:3
21,11:1
21,12:1
21,14:3
21,17:1
21,22:3
24,6:2
24,9:2
24,11:3
24,12:3
24,14:5
24,17:3
24,18:1
24,19:1
24,20:2
24,21:2
24,22:5
24,23:6
24,33:6
24,41:2
24,59:1
24,68:2
25,6:1
25,9:1
25,11:2
25,12:2
25,14:4
25,17:2
25,20:1
25,21:1
25,22:4
25,23:5
25,33:5
25,41:1
25,68:1
26,1:3
26,2:3
26,3:3
26,5:3
26,6:5
26,8:2
26,9:5
26,10:2
26,11:6
26,12:6
26,13:1
26,14:8
26,16:2
26,17:6
26,18:4
26,19:4
26,20:5
26,21:5
26,22:8
26,23:9
26,24:3
26,25:4
26,28:2
26,30:3
26,31:2
26,32:2
26,33:9
26,41:5
26,57:1
26,58:1
26,59:4
26,68:5
26,70:2
27,1:3
27,2:3
27,3:3
27,5:3
27,6:5
27,8:2
27,9:5
27,10:2
27,11:6
27,12:6
27,13:1
27,14:8
27,16:2
27,17:6
27,18:4
27,19:4
27,20:5
27,21:5
27,22:8
27,23:9
27,24:3
27,25:4
27,28:2
27,30:3
27,31:2
27,32:2
27,33:9
27,41:5
27,57:1
27,58:1
27,59:4
27,68:5
27,70:2
28,1:1
28,2:1
28,3:1
28,5:1
28,6:3
28,9:3
28,11:4
28,12:4
28,14:6
28,17:4
28,18:2
28,19:2
28,20:3
28,21:3
28,22:6
28,23:7
28,24:1
28,25:2
28,30:1
28,33:7
28,41:3
28,59:2
28,68:3
29,1:3
29,2:3
29,3:3
29,5:3
29,6:5
29,8:2
29,9:5
29,10:2
29,11:6
29,12:6
29,13:1
29,14:8
29,16:2
29,17:6
29,18:4
29,19:4
29,20:5
29,21:5
29,22:8
29,23:9
29,24:3
29,25:4
29,28:2
29,30:3
29,31:2
29,32:2
29,33:9
29,41:5
29,57:1
29,58:1
29,59:4
29,68:5
29,70:2
30,6:2
30,9:2
30,11:3
30,12:3
30,14:5
30,17:3
30,18:1
30,19:1
30,20:2
30,21:2
30,22:5
30,23:6
30,25:1
30,33:6
30,41:2
30,59:1
30,68:2
31,1:1
31,2:1
31,3:1
31,5:1
31,6:3
31,9:3
31,11:4
31,12:4
31,14:6
31,17:4
31,18:2
31,19:2
31,20:3
31,21:3
31,22:6
31,23:7
31,24:1
31,25:2
31,30:1
31,33:7
31,41:3
31,59:2
31,68:3
32,1:1
32,2:1
32,3:1
32,5:1
32,6:3
32,9:3
32,11:4
32,12:4
32,14:6
32,17:4
32,18:2
32,19:2
32,20:3
32,21:3
32,22:6
32,23:7
32,24:1
32,25:2
32,30:1
32,33:7
32,41:3
32,59:2
32,68:3
34,1:3
34,2:3
34,3:3
34,5:3
34,6:5
34,8:2
34,9:5
34,10:2
34,11:6
34,12:6
34,13:1
34,14:8
34,16:2
34,17:6
34,18:4
34,19:4
34,20:5
34,21:5
34,22:8
34,23:9
34,24:3
34,25:4
34,28:2
34,30:3
34,31:2
34,32:2
34,33:9
34,41:5
34,57:1
34,58:1
34,59:4
34,68:5
34,70:2
36,1:4
36,2:4
36,3:4
36,5:4
36,6:6
36,8:3
36,9:6
36,10:3
36,11:7
36,12:7
36,13:2
36,14:9
36,16:3
36,17:7
36,18:5
36,19:5
36,20:6
36,21:6
36,22:9
36,23:10
36,24:4
36,25:5
36,26:1
36,27:1
36,28:3
36,29:1
36,30:4
36,31:3
36,32:3
36,33:10
36,34:1
36,35:11
36,41:6
36,44:11
36,45:11
36,47:3
36,48:1
36,49:1
36,51:11
36,52:11
36,54:6
36,55:1
36,56:3
36,57:2
36,58:2
36,59:5
36,60:1
36,61:1
36,62:11
36,63:10
36,64:6
36,65:1
36,66:6
36,67:3
36,68:6
36,69:1
36,70:3
37,1:4
37,2:4
37,3:4
37,5:4
37,6:6
37,8:3
37,9:6
37,10:3
37,11:7
37,12:7
37,13:2
37,14:9
37,16:3
37,17:7
37,18:5
37,19:5
37,20:6
37,21:6
37,22:9
37,23:10
37,24:4
37,25:5
37,26:1
37,27:1
37,28:3
37,29:1
37,30:4
37,31:3
37,32:3
37,33:10
37,34:1
37,35:11
37,41:6
37,44:11
37,45:11
37,47:3
37,48:1
37,49:1
37,51:11
37,52:11
37,54:6
37,55:1
37,56:3
37,57:2
37,58:2
37,59:5
37,60:1
37,61:1
37,62:11
37,63:10
37,64:6
37,65:1
37,66:6
37,67:3
37,68:6
37,69:1
37,70:3
38,1:4
38,2:4
38,3:4
38,5:4
38,6:6
38,8:3
38,9:6
38,10:3
38,11:7
38,12:7
38,13:2
38,14:9
38,16:3
38,17:7
38,18:5
38,19:5
38,20:6
38,21:6
38,22:9
38,23:10
38,24:4
38,25:5
38,26:1
38,27:1
38,28:3
38,29:1
38,30:4
38,31:3
38,32:3
38,33:10
38,34:1
38,35:11
38,41:6
38,44:11
38,45:11
38,47:3
38,48:1
38,49:1
38,51:11
38,52:11
38,54:6
38,55:1
38,56:3
38,57:2
38,58:2
38,59:5
38,60:1
38,61:1
38,62:11
38,63:10
38,64:6
38,65:1
38,66:6
38,67:3
38,68:6
38,69:1
38,70:3
39,1:4
39,2:4
39,3:4
39,5:4
39,6:6
39,8:3
39,9:6
39,10:3
39,11:7
39,12:7
39,13:2
39,14:9
39,16:3
39,17:7
39,18:5
39,19:5
39,20:6
39,21:6
39,22:9
39,23:10
39,24:4
39,25:5
39,26:1
39,27:1
39,28:3
39,29:1
39,30:4
39,31:3
39,32:3
39,33:10
39,34:1
39,35:11
39,41:6
39,44:11
39,45:11
39,47:3
39,48:1
39,49:1
39,51:11
39,52:11
39,54:6
39,55:1
39,56:3
39,57:2
39,58:2
39,59:5
39,60:1
39,61:1
39,62:11
39,63:10
39,64:6
39,65:1
39,66:6
39,67:3
39,68:6
39,69:1
39,70:3
40,1:3
40,2:3
40,3:3
40,5:3
40,6:5
40,8:2
40,9:5
40,10:2
40,11:6
40,12:6
40,13:1
40,14:8
40,16:2
40,17:6
40,18:4
40,19:4
40,20:5
40,21:5
40,22:8
40,23:9
40,24:3
40,25:4
40,28:2
40,30:3
40,31:2
40,32:2
40,33:9
40,35:10
40,41:5
40,44:10
40,45:10
40,47:2
40,51:10
40,52:10
40,54:5
40,56:2
40,57:1
40,58:1
40,59:4
40,62:10
40,63:9
40,64:5
40,66:5
40,67:2
40,68:5
40,70:2
41,11:1
41,12:1
41,14:3
41,17:1
41,22:3
41,23:4
41,33:4
41,35:5
41,44:5
41,45:5
41,51:5
41,52:5
41,62:5
41,63:4
42,1:3
42,2:3
42,3:3
42,5:3
42,6:5
42,8:2
42,9:5
42,10:2
42,11:6
42,12:6
42,13:1
42,14:8
42,16:2
42,17:6
42,18:4
42,19:4
42,20:5
42,21:5
42,22:8
42,23:9
42,24:3
42,25:4
42,28:2
42,30:3
42,31:2
42,32:2
42,33:9
42,35:10
42,41:5
42,44:10
42,45:10
42,47:2
42,51:10
42,52:10
42,54:5
42,56:2
42,57:1
42,58:1
42,59:4
42,62:10
42,63:9
42,64:5
42,66:5
42,67:2
42,68:5
42,70:2
43,1:3
43,2:3
43,3:3
43,5:3
43,6:5
43,8:2
43,9:5
43,10:2
43,11:6
43,12:6
43,13:1
43,14:8
43,16:2
43,17:6
43,18:4
43,19:4
43,20:5
43,21:5
43,22:8
43,23:9
43,24:3
43,25:4
43,28:2
43,30:3
43,31:2
43,32:2
43,33:9
43,35:10
43,41:5
43,44:10
43,45:10
43,47:2
43,51:10
43,52:10
43,54:5
43,56:2
43,57:1
43,58:1
43,59:4
43,62:10
43,63:9
43,64:5
43,66:5
43,67:2
43,68:5
43,70:2
46,1:4
46,2:4
46,3:4
46,5:4
46,6:6
46,8:3
46,9:6
46,10:3
46,11:7
46,12:7
46,13:2
46,14:9
46,16:3
46,17:7
46,18:5
46,19:5
46,20:6
46,21:6
46,22:9
46,23:10
46,24:4
46,25:5
46,26:1
46,27:1
46,28:3
46,29:1
46,30:4
46,31:3
46,32:3
46,33:10
46,34:1
46,35:11
46,40:1
46,41:6
46,42:1
46,43:1
46,44:11
46,45:11
46,48:1
46,49:1
46,51:11
46,52:11
46,54:6
46,55:1
46,56:3
46,57:2
46,58:2
46,59:5
46,60:1
46,61:1
46,62:11
46,63:10
46,64:6
46,65:1
46,66:6
46,67:3
46,68:6
46,69:1
46,70:3
47,1:1
47,2:1
47,3:1
47,5:1
47,6:3
47,9:3
47,11:4
47,12:4
47,14:6
47,17:4
47,18:2
47,19:2
47,20:3
47,21:3
47,22:6
47,23:7
47,24:1
47,25:2
47,30:1
47,33:7
47,35:8
47,41:3
47,44:8
47,45:8
47,51:8
47,52:8
47,54:3
47,59:2
47,62:8
47,63:7
47,64:3
47,66:3
47,68:3
48,1:3
48,2:3
48,3:3
48,5:3
48,6:5
48,8:2
48,9:5
48,10:2
48,11:6
48,12:6
48,13:1
48,14:8
48,16:2
48,17:6
48,18:4
48,19:4
48,20:5
48,21:5
48,22:8
48,23:9
48,24:3
48,25:4
48,28:2
48,30:3
48,31:2
48,32:2
48,33:9
48,35:10
48,41:5
48,44:10
48,45:10
48,47:2
48,51:10
48,52:10
48,54:5
48,56:2
48,57:1
48,58:1
48,59:4
48,62:10
48,63:9
48,64:5
48,66:5
48,67:2
48,68:5
48,70:2
49,1:3
49,2:3
49,3:3
49,5:3
49,6:5
49,8:2
49,9:5
49,10:2
49,11:6
49,12:6
49,13:1
49,14:8
49,16:2
49,17:6
49,18:4
49,19:4
49,20:5
49,21:5
49,22:8
49,23:9
49,24:3
49,25:4
49,28:2
49,30:3
49,31:2
49,32:2
49,33:9
49,35:10
49,41:5
49,44:10
49,45:10
49,47:2
49,51:10
49,52:10
49,54:5
49,56:2
49,57:1
49,58:1
49,59:4
49,62:10
49,63:9
49,64:5
49,66:5
49,67:2
49,68:5
49,70:2
50,1:3
50,2:3
50,3:3
50,5:3
50,6:5
50,8:2
50,9:5
50,10:2
50,11:6
50,12:6
50,13:1
50,14:8
50,16:2
50,17:6
50,18:4
50,19:4
50,20:5
50,21:5
50,22:8
50,23:9
50,24:3
50,25:4
50,28:2
50,30:3
50,31:2
50,32:2
50,33:9
50,35:10
50,41:5
50,44:10
50,45:10
50,47:2
50,51:10
50,52:10
50,54:5
50,56:2
50,57:1
50,58:1
50,59:4
50,62:10
50,63:9
50,64:5
50,66:5
50,67:2
50,68:5
50,70:2
53,1:4
53,2:4
53,3:4
53,5:4
53,6:6
53,8:3
53,9:6
53,10:3
53,11:7
53,12:7
53,13:2
53,14:9
53,16:3
53,17:7
53,18:5
53,19:5
53,20:6
53,21:6
53,22:9
53,23:10
53,24:4
53,25:5
53,26:1
53,27:1
53,28:3
53,29:1
53,30:4
53,31:3
53,32:3
53,33:10
53,34:1
53,35:11
53,40:1
53,41:6
53,42:1
53,43:1
53,44:11
53,45:11
53,47:3
53,48:1
53,49:1
53,50:1
53,51:11
53,52:11
53,56:3
53,57:2
53,58:2
53,59:5
53,60:1
53,61:1
53,62:11
53,63:10
53,64:6
53,65:1
53,66:6
53,67:3
53,68:6
53,69:1
53,70:3
54,11:1
54,12:1
54,14:3
54,17:1
54,22:3
54,23:4
54,33:4
54,35:5
54,44:5
54,45:5
54,51:5
54,52:5
54,62:5
54,63:4
55,1:3
55,2:3
55,3:3
55,5:3
55,6:5
55,8:2
55,9:5
55,10:2
55,11:6
55,12:6
55,13:1
55,14:8
55,16:2
55,17:6
55,18:4
55,19:4
55,20:5
55,21:5
55,22:8
55,23:9
55,24:3
55,25:4
55,28:2
55,30:3
55,31:2
55,32:2
55,33:9
55,35:10
55,41:5
55,44:10
55,45:10
55,47:2
55,51:10
55,52:10
55,54:5
55,56:2
55,57:1
55,58:1
55,59:4
55,62:10
55,63:9
55,64:5
55,66:5
55,67:2
55,68:5
55,70:2
56,1:1
56,2:1
56,3:1
56,5:1
56,6:3
56,9:3
56,11:4
56,12:4
56,14:6
56,17:4
56,18:2
56,19:2
56,20:3
56,21:3
56,22:6
56,23:7
56,24:1
56,25:2
56,30:1
56,33:7
56,35:8
56,41:3
56,44:8
56,45:8
56,51:8
56,52:8
56,54:3
56,59:2
56,62:8
56,63:7
56,64:3
56,66:3
56,68:3
57,1:2
57,2:2
57,3:2
57,5:2
57,6:4
57,8:1
57,9:4
57,10:1
57,11:5
57,12:5
57,14:7
57,16:1
57,17:5
57,18:3
57,19:3
57,20:4
57,21:4
57,22:7
57,23:8
57,24:2
57,25:3
57,28:1
57,30:2
57,31:1
57,32:1
57,33:8
57,35:9
57,41:4
57,44:9
57,45:9
57,47:1
57,51:9
57,52:9
57,54:4
57,56:1
57,62:9
57,63:8
57,64:4
57,66:4
57,67:1
57,68:4
57,70:1
58,1:2
58,2:2
58,3:2
58,5:2
58,6:4
58,8:1
58,9:4
58,10:1
58,11:5
58,12:5
58,14:7
58,16:1
58,17:5
58,18:3
58,19:3
58,20:4
58,21:4
58,22:7
58,23:8
58,24:2
58,25:3
58,28:1
58,30:2
58,31:1
58,32:1
58,33:8
58,35:9
58,41:4
58,44:9
58,45:9
58,47:1
58,51:9
58,52:9
58,54:4
58,56:1
58,62:9
58,63:8
58,64:4
58,66:4
58,67:1
58,68:4
58,70:1
59,6:1
59,9:1
59,11:2
59,12:2
59,14:4
59,17:2
59,20:1
59,21:1
59,22:4
59,23:5
59,33:5
59,35:6
59,41:1
59,44:6
59,45:6
59,51:6
59,52:6
59,54:1
59,62:6
59,63:5
59,64:1
59,66:1
59,68:1
60,1:3
60,2:3
60,3:3
60,5:3
60,6:5
60,8:2
60,9:5
60,10:2
60,11:6
60,12:6
60,13:1
60,14:8
60,16:2
60,17:6
60,18:4
60,19:4
60,20:5
60,21:5
60,22:8
60,23:9
60,24:3
60,25:4
60,28:2
60,30:3
60,31:2
60,32:2
60,33:9
60,35:10
60,41:5
60,44:10
60,45:10
60,47:2
60,51:10
60,52:10
60,54:5
60,56:2
60,57:1
60,58:1
60,59:4
60,62:10
60,63:9
60,64:5
60,66:5
60,67:2
60,68:5
60,70:2
61,1:3
61,2:3
61,3:3
61,5:3
61,6:5
61,8:2
61,9:5
61,10:2
61,11:6
61,12:6
61,13:1
61,14:8
61,16:2
61,17:6
61,18:4
61,19:4
61,20:5
61,21:5
61,22:8
61,23:9
61,24:3
61,25:4
61,28:2
61,30:3
61,31:2
61,32:2
61,33:9
61,35:10
61,41:5
61,44:10
61,45:10
61,47:2
61,51:10
61,52:10
61,54:5
61,56:2
61,57:1
61,58:1
61,59:4
61,62:10
61,63:9
61,64:5
61,66:5
61,67:2
61,68:5
61,70:2
63,35:1
63,44:1
63,45:1
63,51:1
63,52:1
63,62:1
64,11:1
64,12:1
64,14:3
64,17:1
64,22:3
64,23:4
64,33:4
64,35:5
64,44:5
64,45:5
64,51:5
64,52:5
64,62:5
64,63:4
65,1:3
65,2:3
65,3:3
65,5:3
65,6:5
65,8:2
65,9:5
65,10:2
65,11:6
65,12:6
65,13:1
65,14:8
65,16:2
65,17:6
65,18:4
65,19:4
65,20:5
65,21:5
65,22:8
65,23:9
65,24:3
65,25:4
65,28:2
65,30:3
65,31:2
65,32:2
65,33:9
65,35:10
65,41:5
65,44:10
65,45:10
65,47:2
65,51:10
65,52:10
65,54:5
65,56:2
65,57:1
65,58:1
65,59:4
65,62:10
65,63:9
65,64:5
65,66:5
65,67:2
65,68:5
65,70:2
66,11:1
66,12:1
66,14:3
66,17:1
66,22:3
66,23:4
66,33:4
66,35:5
66,44:5
66,45:5
66,51:5
66,52:5
66,62:5
66,63:4
67,1:1
67,2:1
67,3:1
67,5:1
67,6:3
67,9:3
67,11:4
67,12:4
67,14:6
67,17:4
67,18:2
67,19:2
67,20:3
67,21:3
67,22:6
67,23:7
67,24:1
67,25:2
67,30:1
67,33:7
67,35:8
67,41:3
67,44:8
67,45:8
67,51:8
67,52:8
67,54:3
67,59:2
67,62:8
67,63:7
67,64:3
67,66:3
67,68:3
68,11:1
68,12:1
68,14:3
68,17:1
68,22:3
68,23:4
68,33:4
68,35:5
68,44:5
68,45:5
68,51:5
68,52:5
68,62:5
68,63:4
69,1:3
69,2:3
69,3:3
69,5:3
69,6:5
69,8:2
69,9:5
69,10:2
69,11:6
69,12:6
69,13:1
69,14:8
69,16:2
69,17:6
69,18:4
69,19:4
69,20:5
69,21:5
69,22:8
69,23:9
69,24:3
69,25:4
69,28:2
69,30:3
69,31:2
69,32:2
69,33:9
69,35:10
69,41:5
69,44:10
69,45:10
69,47:2
69,51:10
69,52:10
69,54:5
69,56:2
69,57:1
69,58:1
69,59:4
69,62:10
69,63:9
69,64:5
69,66:5
69,67:2
69,68:5
69,70:2
70,1:1
70,2:1
70,3:1
70,5:1
70,6:3
70,9:3
70,11:4
70,12:4
70,14:6
70,17:4
70,18:2
70,19:2
70,20:3
70,21:3
70,22:6
70,23:7
70,24:1
70,25:2
70,30:1
70,33:7
70,35:8
70,41:3
70,44:8
70,45:8
70,51:8
70,52:8
70,54:3
70,59:2
70,62:8
70,63:7
70,64:3
70,66:3
70,68:3

<end>

<optimal SALBP-1 value>
21


<rand seed>
467321153

<Lower Bounds>
Lm1=20
Lms1=20
Lm2=12
Lm3=15
Lm4=20
Best=20

<Optimal Stations (Iterations: 10)>
24
